H2O _2                                  
  0.529180000000000     
    12.0000000000000000    0.0000000000000000    0.0000000000000000
     0.0000000000000000   12.0000000000000000    0.0000000000000000
     0.0000000000000000    0.0000000000000000   12.0000000000000000
   O    H 
     1     2
Selective dynamics
Direct
  0.7343363306861724  0.5921229889165913  0.0000000000000000   T   T   F
  0.7863993777722059  0.7383929143119614  0.0000000000000000   T   T   F
  0.5704787165648633  0.5592725909842943  0.0000000000000000   T   T   F
 
 -0.67312515E-02 -0.43590367E-02  0.00000000E+00
  0.99663657E-03 -0.33498318E-01  0.00000000E+00
  0.42015464E-01  0.99926355E-02  0.00000000E+00
 
           1
  0.500000000000000     
  0.10000000E+01  0.00000000E+00  0.00000000E+00  0.00000000E+00
  0.73380632E+00  0.59177977E+00  0.00000000E+00
  0.78647785E+00  0.73575532E+00  0.00000000E+00
  0.57378694E+00  0.56005939E+00  0.00000000E+00
 -0.50728632E-03 -0.32802144E-03  0.00000000E+00
  0.34552315E-03 -0.25465147E-02  0.00000000E+00
  0.26779243E-02  0.45234079E-03  0.00000000E+00
  0.00000000E+00  0.00000000E+00  0.00000000E+00
  0.00000000E+00  0.00000000E+00  0.00000000E+00
  0.00000000E+00  0.00000000E+00  0.00000000E+00
