CONTCAR\(3)
1.0
+10.5475997925  +0.0000000000  +0.0000000000 
 -5.2737998962  +9.1344893692  +0.0000000000 
 +0.0000000000  +0.0000000000 +18.4589996338 
Pd Cu C O H
 16 48 1 2 1
Selective
Cartesian
 +2.6365879867  +1.5219981007  +0.0047761685  F F F
 +0.0026985832  +3.0427908954  +2.1347747500  F F F
 +0.0009021422  -0.0002375261  +4.2234455960  T T T
 +2.6348273751  +1.5366794028  +6.3585276809  T T T
 +7.9122636257  +1.5214083395  -0.0132416422  F F F
 +5.2777143843  +3.0428178297  +2.1470913786  F F F
 +5.2714334662  +0.0000797583  +4.2320326720  T T T
 +7.9092321501  +1.5242912658  +6.3697965318  T T T
 +0.0010373968  +6.0900265245  -0.0022777501  F F F
 -2.6379426551  +7.6140059783  +2.1600596874  F F F
 -2.6397226937  +4.5696128284  +4.2294061839  T T T
 -0.0057551660  +6.0934658031  +6.3899113315  T T T
 +5.2738446477  +6.0904084182  +0.0050026191  F F F
 +2.6407477987  +7.6116815431  +2.1360334180  F F F
 +2.6374472129  +4.5673778666  +4.2211338509  T T T
 +5.2585497111  +6.0846416383  +6.3606565758  T T T
 +1.3534387473  +3.8305470337  +0.0548311809  F F F
 +1.3321385851  +0.7678112780  +2.1438669283  F F F
 +9.2186537277  +2.2780725661  +4.2232042413  T T T
 +1.2842994448  +3.7967219652  +6.2909878637  T T T
 -1.3504495296  +3.8272069047  +0.0542516996  F F F
 +3.9450662069  +0.7664667993  +2.1454555889  F F F
 +1.3263695659  +2.2772680375  +4.2218741141  T T T
 -1.2860686926  +3.7775870848  +6.3028355494  T T T
 +0.0014701221  +1.4798414803  +0.0541854974  F F F
 +2.6396831002  +3.0314024798  +2.1399762127  F F F
 +2.6423686922  +0.0080215350  +4.2424165859  T T T
 -0.0027703122  +1.5656304374  +6.3086729607  T T T
 +6.6323800432  +3.8286636230  +0.0660612256  F F F
 +6.6090783611  +0.7659885784  +2.1400281526  F F F
 +3.9480826996  +2.2761651441  +4.2302133303  T T T
 +6.5582873808  +3.7891253608  +6.3121915847  T T T
 +3.9249376821  +3.8241543051  +0.0604967532  F F F
 +9.2215205214  +0.7658843879  +2.1354206568  F F F
 +6.6074807052  +2.2747793280  +4.2301318289  T T T
 +3.9897986379  +3.7873105365  +6.3128338970  T T T
 +5.2744342062  +1.4765954919  +0.0659312585  F F F
 +7.9158117931  +3.0280416016  +2.1383930005  F F F
 +7.9111938457  +0.0119466543  +4.2249276980  T T T
 +5.2721079587  +1.5618937696  +6.3118696506  T T T
 -1.2852456462  +8.3892861934  +0.0644263120  F F F
 -1.3070336588  +5.3303917028  +2.1411800364  F F F
 -3.9596244249  +6.8428537302  +4.2428810103  T T T
 -1.3657930685  +8.3627398260  +6.3477145227  T T T
 -3.9860764905  +8.3914827779  +0.0697725299  F F F
 +1.3083963793  +5.3352908062  +2.1357644037  F F F
 -1.2958749898  +6.8370488697  +4.2207875742  T T T
 -3.9568627106  +8.3736270235  +6.3115642794  T T T
 -2.6337764661  +6.0537798772  +0.0661142471  F F F
 +0.0041609973  +7.6019165477  +2.1412824414  F F F
 +0.0028241832  +4.5788284542  +4.2223220191  T T T
 -2.6529340567  +6.1326994331  +6.3488991409  T T T
 +3.9932825603  +8.3933052729  +0.0542209530  F F F
 +3.9691005448  +5.3342375471  +2.1404375000  F F F
 +1.3111929356  +6.8427788411  +4.2240618222  T T T
 +3.9174573593  +8.3524894247  +6.3097020881  T T T
 +1.2842569689  +8.3909568306  +0.0549968967  F F F
 +6.5818210759  +5.3365353909  +2.1442062804  F F F
 +3.9655682722  +6.8474666413  +4.2226910099  T T T
 +1.3601065925  +8.3593181240  +6.3075520332  T T T
 +2.6340577834  +6.0477285105  +0.0553837046  F F F
 +5.2756346126  +7.5973755727  +2.1438792141  F F F
 +5.2769658187  +4.5776355854  +4.2306042993  T T T
 +2.6275158201  +6.1240648558  +6.2960861243  T T T
 +0.7048642888  +4.9159651532  +9.6384181065  T T T
 +0.2061818519  +5.9786510844  +9.7213586551  T T T
 +1.2044543037  +3.8525042222  +9.5607993297  T T T
 +0.7048642888  +4.9159651532 +10.8884181065  T T T
