Cu48 Pd16 H1 C1 O2
1.0
10.547600 0.000000 0.000000
-5.273800 9.134489 0.000000
0.000000 0.000000 18.459000
Pd Cu C O H
16 48 1 2 1
Selective dynamics
direct
0.333107 0.166213 0.000008 F F F Pd
0.166652 0.332682 0.115413 F F F Pd
0.000663 -0.000546 0.228189 T T T Pd
0.334844 0.166060 0.344690 T T T Pd
0.833161 0.166046 0.999052 F F F Pd
0.666626 0.332570 0.116013 F F F Pd
0.500888 -0.000561 0.228975 T T T Pd
0.834733 0.166709 0.343814 T T T Pd
0.333319 0.666273 0.999778 F F F Pd
0.166516 0.832974 0.116811 F F F Pd
0.000626 0.499588 0.228329 T T T Pd
0.334265 0.666419 0.346969 T T T Pd
0.833105 0.666273 -0.000010 F F F Pd
0.666624 0.832624 0.115596 F F F Pd
0.500732 0.499595 0.228900 T T T Pd
0.834801 0.665463 0.344337 T T T Pd
0.337833 0.419009 0.002784 F F F Cu
0.168141 0.083548 0.115841 F F F Cu
-0.000380 0.248755 0.228203 T T T Cu
0.330222 0.413437 0.342026 T T T Cu
0.081365 0.418621 0.002727 F F F Cu
0.415734 0.083319 0.115995 F F F Cu
0.251933 0.249658 0.228834 T T T Cu
0.085915 0.414621 0.340330 T T T Cu
0.080989 0.161628 0.002688 F F F Cu
0.415961 0.331367 0.115691 F F F Cu
0.251649 0.001203 0.229167 T T T Cu
0.086254 0.170055 0.340851 T T T Cu
0.838231 0.418719 0.003304 F F F Cu
0.668174 0.083216 0.115697 F F F Cu
0.499145 0.248705 0.228926 T T T Cu
0.829599 0.413614 0.341520 T T T Cu
0.581198 0.418234 0.003010 F F F Cu
0.915888 0.083237 0.115345 F F F Cu
0.751340 0.248441 0.228659 T T T Cu
0.586800 0.413788 0.341526 T T T Cu
0.580630 0.161117 0.003320 F F F Cu
0.916000 0.330993 0.115526 F F F Cu
0.750666 -0.000309 0.228833 T T T Cu
0.586621 0.170454 0.341638 T T T Cu
0.337184 0.917881 0.003322 F F F Cu
0.167735 0.583069 0.115858 F F F Cu
0.999256 0.749053 0.229014 T T T Cu
0.329266 0.914628 0.341692 T T T Cu
0.081215 0.918189 0.003524 F F F Cu
0.415888 0.583616 0.115663 F F F Cu
0.251566 0.748562 0.229430 T T T Cu
0.086363 0.914146 0.341611 T T T Cu
0.081576 0.662312 0.003380 F F F Cu
0.416288 0.831592 0.115970 F F F Cu
0.251683 0.501283 0.229066 T T T Cu
0.086237 0.669591 0.341127 T T T Cu
0.837705 0.918323 0.002673 F F F Cu
0.667979 0.583393 0.115733 F F F Cu
0.497886 0.748011 0.228641 T T T Cu
0.834207 0.915878 0.341245 T T T Cu
0.580770 0.918026 0.002821 F F F Cu
0.915916 0.583690 0.115865 F F F Cu
0.750712 0.748764 0.228911 T T T Cu
0.588192 0.915938 0.342428 T T T Cu
0.580488 0.661620 0.002835 F F F Cu
0.915753 0.831110 0.115835 F F F Cu
0.751248 0.500768 0.228846 T T T Cu
0.588375 0.669962 0.341913 T T T Cu
0.313296 0.518308 0.521085 T T T C
0.286458 0.614148 0.529350 T T T O
0.322527 0.413466 0.506128 T T T O
0.504747 0.742439 0.424442 T T T H
