cif2pos.py
1.0
     3.15870000     0.00000000     0.00000000
     0.00000000     5.76820000     0.00000000
     0.00000000     0.00000000    10.16200000
  Pu
  8
Direct
     0.00000000     0.00000000     0.00000000
     0.00000000     0.50000000     0.50000000
     0.50000000     0.00000000     0.50000000
     0.50000000     0.50000000     0.00000000
     0.75000000     0.25000000     0.75000000
     0.75000000     0.75000000     0.25000000
     0.25000000     0.25000000     0.25000000
     0.25000000     0.75000000     0.75000000
