Cu48 Pd16 H1 C1 O2
1.0
10.547600 0.000000 0.000000
-5.273800 9.134489 0.000000
0.000000 0.000000 18.459000
Pd Cu C O H
16 48 1 2 1
Selective dynamics
direct
0.333329 0.166622 0.000052 F F F Pd
0.166817 0.333070 0.115296 F F F Pd
0.000547 0.000070 0.228185 T T T Pd
0.334331 0.165020 0.344037 T T T Pd
0.833464 0.166544 0.998946 F F F Pd
0.666859 0.333036 0.116126 F F F Pd
0.500661 -0.000145 0.228847 T T T Pd
0.834727 0.167407 0.344750 T T T Pd
0.333549 0.666734 0.999611 F F F Pd
0.166660 0.833493 0.116733 F F F Pd
0.000306 0.500283 0.227826 T T T Pd
0.335654 0.669730 0.346767 T T T Pd
0.833252 0.666726 0.000095 F F F Pd
0.666915 0.833212 0.115679 F F F Pd
0.499677 0.499736 0.229288 T T T Pd
0.833204 0.666380 0.344622 T T T Pd
0.338067 0.419389 0.002698 F F F Cu
0.168285 0.083943 0.115867 F F F Cu
-0.000712 0.249261 0.228216 T T T Cu
0.332753 0.415488 0.344564 T T T Cu
0.081516 0.419006 0.002551 F F F Cu
0.416023 0.083779 0.116077 F F F Cu
0.251471 0.251539 0.229487 T T T Cu
0.083603 0.414802 0.338888 T T T Cu
0.081148 0.161968 0.002625 F F F Cu
0.416222 0.331843 0.115737 F F F Cu
0.251147 0.001798 0.228870 T T T Cu
0.083974 0.167924 0.340334 T T T Cu
0.838346 0.419126 0.003243 F F F Cu
0.668469 0.083735 0.115799 F F F Cu
0.499104 0.249405 0.228797 T T T Cu
0.829500 0.414712 0.341365 T T T Cu
0.581419 0.418650 0.003106 F F F Cu
0.916115 0.083748 0.115467 F F F Cu
0.751495 0.249055 0.228784 T T T Cu
0.587175 0.413930 0.341240 T T T Cu
0.580879 0.161572 0.003387 F F F Cu
0.916120 0.331393 0.115471 F F F Cu
0.750738 0.000706 0.228894 T T T Cu
0.586904 0.170869 0.341741 T T T Cu
0.337427 0.918379 0.003251 F F F Cu
0.167888 0.583553 0.115642 F F F Cu
0.998760 0.749556 0.228869 T T T Cu
0.329152 0.915298 0.341099 T T T Cu
0.081395 0.918598 0.003493 F F F Cu
0.416150 0.584109 0.115547 F F F Cu
0.252093 0.748270 0.229017 T T T Cu
0.085226 0.914120 0.341504 T T T Cu
0.081686 0.662739 0.003223 F F F Cu
0.416582 0.832174 0.115881 F F F Cu
0.252239 0.501997 0.229251 T T T Cu
0.084520 0.671019 0.340378 T T T Cu
0.837918 0.918789 0.002783 F F F Cu
0.668168 0.583934 0.115844 F F F Cu
0.497381 0.748571 0.228768 T T T Cu
0.830932 0.915366 0.341521 T T T Cu
0.581078 0.918551 0.002831 F F F Cu
0.915992 0.584186 0.115826 F F F Cu
0.750340 0.749083 0.228868 T T T Cu
0.587211 0.915925 0.342464 T T T Cu
0.580756 0.662086 0.002852 F F F Cu
0.915843 0.831629 0.115947 F F F Cu
0.750858 0.501731 0.228791 T T T Cu
0.587540 0.673276 0.341782 T T T Cu
0.303881 0.519868 0.493813 T T T C
0.287240 0.625212 0.477412 T T T O
0.302081 0.409408 0.467950 T T T O
0.468411 0.616500 0.536996 T T T H
