Pd   Cu   C    O    H 
   1.00000000000000     
  10.5475997924999998   0.0000000000000000   0.0000000000000000
  -5.2737998961999999   9.1344893692000007   0.0000000000000000
   0.0000000000000000   0.0000000000000000  18.4589996338000013
Pd   Cu   C    O    H 
16  48  1  2  1  
Selective dynamics
Direct
  0.3332809424891110  0.1666210380442190  0.0002587447096118 F F F
  0.1668109105724940  0.3331101249797040  0.1156495363969230 F F F
  0.0009364711151747  0.0002616877932908  0.2285972928576000 T T T
  0.3351989733888200  0.1666430222070830  0.3449310758675210 T T T
  0.8334264963584840  0.1665564738221620  0.9992826457303891 F F F
  0.6669276627625250  0.3331130736174330  0.1163167788718340 F F F
  0.5011787988549440  0.0001725111072446  0.2290779223669190 T T T
  0.8351964113505660  0.1676081116162040  0.3444834197023500 T T T
  0.3334517728461180  0.6667068380455490  0.9998766049003081 F F F
  0.1666735352737310  0.8335447851056870  0.1170193255459400 F F F
  0.0008859100526166  0.5002624407710100  0.2286474753314850 T T T
  0.3352164012357550  0.6682935450359440  0.3467558121387740 T T T
  0.8333785657720230  0.6667486459326210  0.0002710124708400 F F F
  0.6670099667208260  0.8332903171101550  0.1157177236240230 F F F
  0.5008341538606300  0.5002493401621710  0.2291285595969580 T T T
  0.8347220870584020  0.6665615472950390  0.3446577532598600 T T T
  0.3379921667939880  0.4193498814083650  0.0029704307919047 F F F
  0.1683259384188180  0.0840562889688101  0.1161420971250490 F F F
  0.9998584956028370  0.2494517346328070  0.2286922269734360 T T T
  0.3312225447435400  0.4146055033727760  0.3428834635349820 T T T
  0.0814582866214337  0.4189842201365650  0.0029390379043406 F F F
  0.4159795693916240  0.0839091019016749  0.1162281614097580 F F F
  0.2520427127158130  0.2506118514120810  0.2293263863208710 T T T
  0.0862854536768864  0.4156635114806590  0.3409472268381390 T T T
  0.0811423466896173  0.1620059338280910  0.0029354514586330 F F F
  0.4161955538975160  0.3318633759672880  0.1159313210441580 F F F
  0.2517575266015160  0.0019844475814068  0.2293735947742950 T T T
  0.0863587339294369  0.1705963323059690  0.3414666838918810 T T T
  0.8383765207754760  0.4191436946557300  0.0035788085438284 F F F
  0.6685238548819330  0.0838567485756556  0.1159341348423550 F F F
  0.4994304345080420  0.2494187607890200  0.2291444517981840 T T T
  0.8303103992215880  0.4146849968094490  0.3419676698207970 T T T
  0.5814416853325920  0.4186500362017400  0.0032773581667556 F F F
  0.9161993504713950  0.0838453423004069  0.1156845278272770 F F F
  0.7517840559994080  0.2492149890332770  0.2290345809085680 T T T
  0.5875193532016501  0.4147822814477210  0.3415664348843210 T T T
  0.5808854271553300  0.1616505786167790  0.0035717676909925 F F F
  0.9162323767505000  0.3314954431727770  0.1158455519217010 F F F
  0.7510407118555660  0.0006044079489698  0.2291077510999170 T T T
  0.5871450546125420  0.1712004281653920  0.3418526955146320 T T T
  0.3373574145638830  0.9184187374159410  0.0034902385436979 F F F
  0.1678551955437730  0.5835456682201891  0.1159965371297460 F F F
  0.9993741731871000  0.7497252183432370  0.2293224045290360 T T T
  0.3297855828703860  0.9154873127621670  0.3416714972652740 T T T
  0.0814164707704705  0.9186592089312310  0.0037798651760212 F F F
  0.4160878350328550  0.5840819985175900  0.1157031500119460 F F F
  0.2517894725263900  0.7490464393582100  0.2294048247625400 T T T
  0.0864887197157600  0.9149726260488720  0.3419544794670910 T T T
  0.0816654966580259  0.6627387292838020  0.0035816809367546 F F F
  0.4165051432441520  0.8322212923398240  0.1160020848301640 F F F
  0.2518855883932080  0.5018237456092930  0.2292448077771500 T T T
  0.0864637361706428  0.6706215034536460  0.3415042421393510 T T T
  0.8380256923730370  0.9188587269257620  0.0029373722344488 F F F
  0.6682870195304100  0.5839666927727980  0.1159563108761720 F F F
  0.4980970197834010  0.7488140170601550  0.2284193140919870 T T T
  0.8334490041716980  0.9164137926626520  0.3417415487736900 T T T
  0.5810590346959690  0.9186016307482840  0.0029794082989909 F F F
  0.9161203885681030  0.5842182496696470  0.1161604812253070 F F F
  0.7509467843724950  0.7494827414571720  0.2291156986788540 T T T
  0.5881589788780840  0.9160881746496730  0.3429670297206900 T T T
  0.5807686665611980  0.6620762547375630  0.0030003632752980 F F F
  0.9160360304425690  0.8317241682186560  0.1161427626974070 F F F
  0.7515540262210580  0.5015898171369600  0.2291052302208600 T T T
  0.5884694507632630  0.6726269484981910  0.3424677730929770 T T T
  0.3303006945089560  0.5329079291152540  0.5150543741648550 T T T
  0.3283746328702010  0.6422424278060670  0.5160632048622420 T T T
  0.3313745820465850  0.4251099750482080  0.4974443686263900 T T T
  0.4589275811904590  0.6873424482811220  0.4386106909174000 T T T
