Cu48 Pd16 H1 C1 O2
1.0
10.547600 0.000000 0.000000
-5.273800 9.134489 0.000000
0.000000 0.000000 18.459000
Pd Cu C O H
16 48 1 2 1
Selective dynamics
direct
0.333281 0.166621 0.000259 F F F Pd
0.166811 0.333110 0.115650 F F F Pd
0.001071 0.000253 0.228711 T T T Pd
0.335582 0.167400 0.345282 T T T Pd
0.833426 0.166556 0.999283 F F F Pd
0.666928 0.333113 0.116317 F F F Pd
0.501542 0.000240 0.229235 T T T Pd
0.835671 0.167805 0.344314 T T T Pd
0.333452 0.666707 0.999877 F F F Pd
0.166674 0.833545 0.117019 F F F Pd
0.001071 0.500216 0.228785 T T T Pd
0.335668 0.667430 0.346645 T T T Pd
0.833379 0.666749 0.000271 F F F Pd
0.667010 0.833290 0.115718 F F F Pd
0.501552 0.500585 0.228995 T T T Pd
0.835316 0.666470 0.344522 T T T Pd
0.337992 0.419350 0.002970 F F F Cu
0.168326 0.084056 0.116142 F F F Cu
0.000027 0.249347 0.228646 T T T Cu
0.330360 0.414010 0.341289 T T T Cu
0.081458 0.418984 0.002939 F F F Cu
0.415980 0.083909 0.116228 F F F Cu
0.252385 0.249889 0.228964 T T T Cu
0.087399 0.415857 0.341253 T T T Cu
0.081142 0.162006 0.002935 F F F Cu
0.416196 0.331863 0.115931 F F F Cu
0.252128 0.001919 0.229538 T T T Cu
0.087489 0.171705 0.341659 T T T Cu
0.838377 0.419144 0.003579 F F F Cu
0.668524 0.083857 0.115934 F F F Cu
0.499617 0.249339 0.229270 T T T Cu
0.830455 0.414543 0.342086 T T T Cu
0.581442 0.418650 0.003277 F F F Cu
0.916199 0.083845 0.115685 F F F Cu
0.751923 0.249219 0.229100 T T T Cu
0.587333 0.415090 0.341745 T T T Cu
0.580885 0.161651 0.003572 F F F Cu
0.916232 0.331495 0.115846 F F F Cu
0.750989 0.000341 0.229262 T T T Cu
0.587169 0.171134 0.341945 T T T Cu
0.337357 0.918419 0.003490 F F F Cu
0.167855 0.583546 0.115997 F F F Cu
0.999579 0.749798 0.229361 T T T Cu
0.330165 0.915482 0.341917 T T T Cu
0.081416 0.918659 0.003780 F F F Cu
0.416088 0.584082 0.115703 F F F Cu
0.251654 0.749510 0.229478 T T T Cu
0.087116 0.915188 0.342050 T T T Cu
0.081665 0.662739 0.003582 F F F Cu
0.416505 0.832221 0.116002 F F F Cu
0.251725 0.501737 0.228973 T T T Cu
0.087345 0.670376 0.341605 T T T Cu
0.838026 0.918859 0.002937 F F F Cu
0.668287 0.583967 0.115956 F F F Cu
0.498585 0.748895 0.228290 T T T Cu
0.834611 0.916733 0.341793 T T T Cu
0.581059 0.918602 0.002979 F F F Cu
0.916120 0.584218 0.116160 F F F Cu
0.751020 0.749583 0.229314 T T T Cu
0.588402 0.915688 0.343711 T T T Cu
0.580769 0.662076 0.003000 F F F Cu
0.916036 0.831724 0.116143 F F F Cu
0.751790 0.501422 0.229183 T T T Cu
0.588294 0.671739 0.343451 T T T Cu
0.330616 0.534920 0.525259 T T T C
0.325631 0.642103 0.536560 T T T O
0.335472 0.427364 0.514441 T T T O
0.509559 0.753972 0.394262 T T T H
