Pd   Cu   C    O    H 
   1.00000000000000     
  10.5475997924999998   0.0000000000000000   0.0000000000000000
  -5.2737998961999999   9.1344893692000007   0.0000000000000000
   0.0000000000000000   0.0000000000000000  18.4589996338000013
Pd   Cu   C    O    H 
16  48  1  2  1  
Selective dynamics
Direct
  0.3332809424891110  0.1666210380442190  0.0002587447096118 F F F
  0.1668109105724940  0.3331101249797040  0.1156495363969230 F F F
  0.0007346667832948  0.0002749952398062  0.2284265114257880 T T T
  0.3346249389537950  0.1655080653016650  0.3444053430814480 T T T
  0.8334264963584840  0.1665564738221620  0.9992826457303891 F F F
  0.6669276627625250  0.3331130736174330  0.1163167788718340 F F F
  0.5006345674640680  0.0000710047099943  0.2288422229409480 T T T
  0.8344849309583749  0.1673122605959140  0.3447368123437040 T T T
  0.3334517728461180  0.6667068380455490  0.9998766049003081 F F F
  0.1666735352737310  0.8335447851056870  0.1170193255459400 F F F
  0.0006077315025124  0.5003322622122039  0.2284408882832170 T T T
  0.3345389408099280  0.6695884297494250  0.3469214449187350 T T T
  0.8333785657720230  0.6667486459326210  0.0002710124708400 F F F
  0.6670099667208260  0.8332903171101550  0.1157177236240230 F F F
  0.4997575553583150  0.4997455368313200  0.2293283380172400 T T T
  0.8338307763086730  0.6666993902569800  0.3448613093788070 T T T
  0.3379921667939880  0.4193498814083650  0.0029704307919047 F F F
  0.1683259384188180  0.0840562889688101  0.1161420971250490 F F F
  0.9996059843677260  0.2496085720675370  0.2287612362433720 T T T
  0.3325166978055240  0.4154981617638210  0.3452754606884200 T T T
  0.0814582866214337  0.4189842201365650  0.0029390379043406 F F F
  0.4159795693916240  0.0839091019016749  0.1162281614097580 F F F
  0.2515294339527050  0.2516958002563850  0.2298703418346550 T T T
  0.0846156368488451  0.4153737306924730  0.3404883094627000 T T T
  0.0811423466896173  0.1620059338280910  0.0029354514586330 F F F
  0.4161955538975160  0.3318633759672880  0.1159313210441580 F F F
  0.2512019207381610  0.0020832973182721  0.2291270148434210 T T T
  0.0846625943624417  0.1689329438416040  0.3411785309796190 T T T
  0.8383765207754760  0.4191436946557300  0.0035788085438284 F F F
  0.6685238548819330  0.0838567485756556  0.1159341348423550 F F F
  0.4991500868584140  0.2495388369791840  0.2289564927534830 T T T
  0.8300927499684080  0.4148972488970340  0.3417898146607360 T T T
  0.5814416853325920  0.4186500362017400  0.0032773581667556 F F F
  0.9161993504713950  0.0838453423004069  0.1156845278272770 F F F
  0.7515755863377150  0.2492091742426230  0.2289367615149370 T T T
  0.5877994269182520  0.4143203401150900  0.3412982484527730 T T T
  0.5808854271553300  0.1616505786167790  0.0035717676909925 F F F
  0.9162323767505000  0.3314954431727770  0.1158455519217010 F F F
  0.7511187755831230  0.0009999938039229  0.2288760238533100 T T T
  0.5871096852601450  0.1712996974810390  0.3417145528538010 T T T
  0.3373574145638830  0.9184187374159410  0.0034902385436979 F F F
  0.1678551955437730  0.5835456682201891  0.1159965371297460 F F F
  0.9990667596369320  0.7496166556881581  0.2292646825132820 T T T
  0.3292169392702110  0.9154949806104969  0.3413037185995980 T T T
  0.0814164707704705  0.9186592089312310  0.0037798651760212 F F F
  0.4160878350328550  0.5840819985175900  0.1157031500119460 F F F
  0.2519925110727930  0.7483503778527090  0.2292952695872190 T T T
  0.0855477833020473  0.9146496942051310  0.3418114045819680 T T T
  0.0816654966580259  0.6627387292838020  0.0035816809367546 F F F
  0.4165051432441520  0.8322212923398240  0.1160020848301640 F F F
  0.2521268231558690  0.5019544304448330  0.2296518627856440 T T T
  0.0851418843105876  0.6709901903125230  0.3413534797630290 T T T
  0.8380256923730370  0.9188587269257620  0.0029373722344488 F F F
  0.6682870195304100  0.5839666927727980  0.1159563108761720 F F F
  0.4973656951705010  0.7486922640854560  0.2286132429467000 T T T
  0.8317053061456430  0.9159342829455140  0.3416640641752200 T T T
  0.5810590346959690  0.9186016307482840  0.0029794082989909 F F F
  0.9161203885681030  0.5842182496696470  0.1161604812253070 F F F
  0.7508365422310420  0.7493325221226000  0.2288175019559020 T T T
  0.5877946910084760  0.9166879983147140  0.3418512495996350 T T T
  0.5807686665611980  0.6620762547375630  0.0030003632752980 F F F
  0.9160360304425690  0.8317241682186560  0.1161427626974070 F F F
  0.7512002831308140  0.5018420462975900  0.2289890097833830 T T T
  0.5887332486112981  0.6739584027281750  0.3409936190046640 T T T
  0.3298272781731700  0.5298897343935850  0.4997468751779340 T T T
  0.3324903268280220  0.6424522850093620  0.4853177143844290 T T T
  0.3252290778579340  0.4217291045130620  0.4719496816273360 T T T
  0.3829798959947150  0.5873980968173600  0.5051339722974790 T T T
