Cu48 Pd16 H1 C1 O2
1.0
10.547600 0.000000 0.000000
-5.273800 9.134489 0.000000
0.000000 0.000000 18.459000
Pd Cu C O H
16 48 1 2 1
Selective dynamics
direct
0.333266 0.166682 0.000107 F F F Pd
0.166721 0.333110 0.115408 F F F Pd
0.000505 0.000262 0.228239 T T T Pd
0.334228 0.165077 0.344016 T T T Pd
0.833400 0.166588 0.999086 F F F Pd
0.666874 0.333151 0.116179 F F F Pd
0.500419 0.000108 0.228651 T T T Pd
0.834244 0.167314 0.344857 T T T Pd
0.333451 0.666769 0.999687 F F F Pd
0.166597 0.833622 0.116797 F F F Pd
0.000254 0.500364 0.228037 T T T Pd
0.334400 0.670179 0.346008 T T T Pd
0.833306 0.666792 0.000143 F F F Pd
0.666960 0.833338 0.115613 F F F Pd
0.499362 0.499696 0.229247 T T T Pd
0.833198 0.666724 0.344778 T T T Pd
0.337986 0.419403 0.002788 F F F Cu
0.168231 0.084075 0.115950 F F F Cu
-0.000732 0.249534 0.228518 T T T Cu
0.332933 0.415945 0.345281 T T T Cu
0.081419 0.419019 0.002701 F F F Cu
0.415954 0.083999 0.116082 F F F Cu
0.251215 0.252022 0.229784 T T T Cu
0.083333 0.415022 0.339641 T T T Cu
0.081090 0.162032 0.002737 F F F Cu
0.416164 0.331923 0.115771 F F F Cu
0.250900 0.002263 0.228844 T T T Cu
0.083697 0.168034 0.340731 T T T Cu
0.838321 0.419172 0.003372 F F F Cu
0.668462 0.083882 0.115808 F F F Cu
0.498994 0.249656 0.228756 T T T Cu
0.829721 0.414987 0.341560 T T T Cu
0.581417 0.418698 0.003156 F F F Cu
0.916109 0.083854 0.115541 F F F Cu
0.751415 0.249215 0.228809 T T T Cu
0.587597 0.414220 0.341113 T T T Cu
0.580858 0.161679 0.003426 F F F Cu
0.916112 0.331483 0.115630 F F F Cu
0.750944 0.001094 0.228742 T T T Cu
0.586940 0.171524 0.341608 T T T Cu
0.337350 0.918479 0.003309 F F F Cu
0.167771 0.583593 0.115728 F F F Cu
0.998749 0.749646 0.229002 T T T Cu
0.328911 0.915674 0.340888 T T T Cu
0.081363 0.918721 0.003582 F F F Cu
0.416067 0.584150 0.115520 F F F Cu
0.251933 0.748246 0.228916 T T T Cu
0.085049 0.914345 0.341617 T T T Cu
0.081619 0.662791 0.003347 F F F Cu
0.416496 0.832305 0.115831 F F F Cu
0.252045 0.501998 0.229393 T T T Cu
0.084210 0.671174 0.340786 T T T Cu
0.837955 0.918884 0.002813 F F F Cu
0.668219 0.584022 0.115839 F F F Cu
0.497147 0.748741 0.228541 T T T Cu
0.830725 0.915596 0.341550 T T T Cu
0.581046 0.918647 0.002848 F F F Cu
0.916010 0.584257 0.115951 F F F Cu
0.750557 0.749268 0.228678 T T T Cu
0.587407 0.916778 0.341570 T T T Cu
0.580751 0.662132 0.002876 F F F Cu
0.915908 0.831752 0.115996 F F F Cu
0.750893 0.501964 0.228812 T T T Cu
0.588263 0.674275 0.340776 T T T Cu
0.316552 0.525451 0.490428 T T T C
0.318786 0.640484 0.470707 T T T O
0.314141 0.416524 0.460715 T T T O
0.408200 0.567807 0.551799 T T T H
