Cu48 Pd16 H1 C1 O2
1.0
10.547600 0.000000 0.000000
-5.273800 9.134489 0.000000
0.000000 0.000000 18.459000
Pd Cu C O H
16 48 1 2 1
Selective dynamics
direct
0.333281 0.166621 0.000259 F F F Pd
0.166811 0.333110 0.115650 F F F Pd
0.000600 0.000284 0.228313 T T T Pd
0.334242 0.164751 0.344055 T T T Pd
0.833426 0.166556 0.999283 F F F Pd
0.666928 0.333113 0.116317 F F F Pd
0.500272 0.000003 0.228685 T T T Pd
0.834011 0.167115 0.344906 T T T Pd
0.333452 0.666707 0.999877 F F F Pd
0.166674 0.833545 0.117019 F F F Pd
0.000422 0.500379 0.228303 T T T Pd
0.334087 0.670452 0.347032 T T T Pd
0.833379 0.666749 0.000271 F F F Pd
0.667010 0.833290 0.115718 F F F Pd
0.499040 0.499410 0.229462 T T T Pd
0.833237 0.666791 0.344997 T T T Pd
0.337992 0.419350 0.002970 F F F Cu
0.168326 0.084056 0.116142 F F F Cu
-0.000562 0.249713 0.228807 T T T Cu
0.333379 0.416093 0.346870 T T T Cu
0.081458 0.418984 0.002939 F F F Cu
0.415980 0.083909 0.116228 F F F Cu
0.251187 0.252418 0.230233 T T T Cu
0.083502 0.415181 0.340182 T T T Cu
0.081142 0.162006 0.002935 F F F Cu
0.416196 0.331863 0.115931 F F F Cu
0.250832 0.002149 0.228963 T T T Cu
0.083532 0.167824 0.340986 T T T Cu
0.838377 0.419144 0.003579 F F F Cu
0.668524 0.083857 0.115934 F F F Cu
0.498963 0.249619 0.228831 T T T Cu
0.829948 0.415039 0.341671 T T T Cu
0.581442 0.418650 0.003277 F F F Cu
0.916199 0.083845 0.115685 F F F Cu
0.751437 0.249205 0.228872 T T T Cu
0.587986 0.414012 0.341119 T T T Cu
0.580885 0.161651 0.003572 F F F Cu
0.916232 0.331495 0.115846 F F F Cu
0.751171 0.001264 0.228722 T T T Cu
0.587086 0.171366 0.341622 T T T Cu
0.337357 0.918419 0.003490 F F F Cu
0.167855 0.583546 0.115997 F F F Cu
0.998862 0.749544 0.229226 T T T Cu
0.328838 0.915500 0.341059 T T T Cu
0.081416 0.918659 0.003780 F F F Cu
0.416088 0.584082 0.115703 F F F Cu
0.252128 0.747886 0.229222 T T T Cu
0.084920 0.914434 0.341716 T T T Cu
0.081665 0.662739 0.003582 F F F Cu
0.416505 0.832221 0.116002 F F F Cu
0.252288 0.502042 0.229923 T T T Cu
0.084261 0.671236 0.341253 T T T Cu
0.838026 0.918859 0.002937 F F F Cu
0.668287 0.583967 0.115956 F F F Cu
0.496878 0.748611 0.228743 T T T Cu
0.830543 0.915615 0.341612 T T T Cu
0.581059 0.918602 0.002979 F F F Cu
0.916120 0.584218 0.116160 F F F Cu
0.750763 0.749232 0.228619 T T T Cu
0.587552 0.917088 0.341107 T T T Cu
0.580769 0.662076 0.003000 F F F Cu
0.916036 0.831724 0.116143 F F F Cu
0.750964 0.502010 0.228912 T T T Cu
0.588909 0.674846 0.340011 T T T Cu
0.329512 0.527878 0.489542 T T T C
0.335234 0.642592 0.464821 T T T O
0.321132 0.419475 0.454953 T T T O
0.332348 0.520769 0.549483 T T T H
