Cu48 Pd16 H1 C1 O2
1.0
10.547600 0.000000 0.000000
-5.273800 9.134489 0.000000
0.000000 0.000000 18.459000
Pd Cu C O H
16 48 1 2 1
Selective dynamics
direct
0.333294 0.166591 0.000247 F F F Pd
0.166714 0.332929 0.115428 F F F Pd
0.000150 -0.000546 0.228095 T T T Pd
0.334219 0.164929 0.344128 T T T Pd
0.833240 0.166280 0.999178 F F F Pd
0.666729 0.332881 0.116169 F F F Pd
0.500561 -0.000472 0.229061 T T T Pd
0.833075 0.165843 0.344240 T T T Pd
0.333543 0.666614 1.000016 F F F Pd
0.166635 0.833338 0.116883 F F F Pd
0.000287 0.500065 0.227871 T T T Pd
0.337211 0.669392 0.347880 T T T Pd
0.833149 0.666600 0.000223 F F F Pd
0.666768 0.832999 0.115802 F F F Pd
0.499895 0.499624 0.229265 T T T Pd
0.833547 0.665978 0.344454 T T T Pd
0.338035 0.419359 0.003021 F F F Cu
0.168182 0.083771 0.115944 F F F Cu
-0.000941 0.248889 0.228119 T T T Cu
0.332285 0.414839 0.343771 T T T Cu
0.081541 0.418939 0.002861 F F F Cu
0.415898 0.083602 0.116189 F F F Cu
0.251431 0.250945 0.229314 T T T Cu
0.083948 0.414538 0.338564 T T T Cu
0.081127 0.161928 0.002845 F F F Cu
0.416123 0.331687 0.115843 F F F Cu
0.251186 0.001475 0.229016 T T T Cu
0.084018 0.167943 0.340120 T T T Cu
0.838367 0.419043 0.003431 F F F Cu
0.668254 0.083511 0.115873 F F F Cu
0.498971 0.249084 0.228871 T T T Cu
0.829362 0.414264 0.341271 T T T Cu
0.581337 0.418590 0.003288 F F F Cu
0.915816 0.083404 0.115459 F F F Cu
0.750878 0.248477 0.228703 T T T Cu
0.586907 0.413543 0.341257 T T T Cu
0.580760 0.161407 0.003558 F F F Cu
0.915986 0.331219 0.115542 F F F Cu
0.750371 0.000176 0.228931 T T T Cu
0.586525 0.170487 0.341849 T T T Cu
0.337382 0.918205 0.003527 F F F Cu
0.167869 0.583441 0.115837 F F F Cu
0.998835 0.749376 0.228911 T T T Cu
0.329270 0.914851 0.341427 T T T Cu
0.081398 0.918479 0.003692 F F F Cu
0.416095 0.583987 0.115756 F F F Cu
0.252160 0.748231 0.229328 T T T Cu
0.085385 0.913922 0.341517 T T T Cu
0.081739 0.662644 0.003511 F F F Cu
0.416494 0.832003 0.116093 F F F Cu
0.252269 0.501949 0.229313 T T T Cu
0.085180 0.670765 0.340304 T T T Cu
0.837779 0.918593 0.002906 F F F Cu
0.668093 0.583772 0.115935 F F F Cu
0.497456 0.748357 0.228937 T T T Cu
0.831501 0.915341 0.341471 T T T Cu
0.580929 0.918321 0.003092 F F F Cu
0.915929 0.584052 0.115902 F F F Cu
0.750272 0.748859 0.228951 T T T Cu
0.586912 0.915151 0.343035 T T T Cu
0.580647 0.661963 0.003139 F F F Cu
0.915732 0.831420 0.115989 F F F Cu
0.750863 0.501404 0.228823 T T T Cu
0.587494 0.672424 0.341844 T T T Cu
0.296985 0.515341 0.499113 T T T C
0.266242 0.611322 0.485610 T T T O
0.296507 0.405133 0.475821 T T T O
0.510099 0.661137 0.509662 T T T H
