Pd   Cu   C    O    H 
   1.00000000000000     
  10.5475997924999998   0.0000000000000000   0.0000000000000000
  -5.2737998961999999   9.1344893692000007   0.0000000000000000
   0.0000000000000000   0.0000000000000000  18.4589996338000013
Pd   Cu   C    O    H 
16  48  1  2  1  
Selective dynamics
Direct
  0.3332809424891110  0.1666210380442190  0.0002587447096118 F F F
  0.1668109105724940  0.3331101249797040  0.1156495363969230 F F F
  0.0008692030045481  0.0002661236087960  0.2285403657136630 T T T
  0.3350076285771450  0.1662647032386100  0.3447558316054970 T T T
  0.8334264963584840  0.1665564738221620  0.9992826457303891 F F F
  0.6669276627625250  0.3331130736174330  0.1163167788718340 F F F
  0.5009973883913190  0.0001386756414945  0.2289993558915950 T T T
  0.8349592512198361  0.1675094946094400  0.3445678839161350 T T T
  0.3334517728461180  0.6667068380455490  0.9998766049003081 F F F
  0.1666735352737310  0.8335447851056870  0.1170193255459400 F F F
  0.0007931838692485  0.5002857145847410  0.2285786129820620 T T T
  0.3349905810938130  0.6687251732737710  0.3468110230654280 T T T
  0.8333785657720230  0.6667486459326210  0.0002710124708400 F F F
  0.6670099667208260  0.8332903171101550  0.1157177236240230 F F F
  0.5004752876931921  0.5000814057185540  0.2291951524037190 T T T
  0.8344249834751590  0.6666074949490191  0.3447256052995090 T T T
  0.3379921667939880  0.4193498814083650  0.0029704307919047 F F F
  0.1683259384188180  0.0840562889688101  0.1161420971250490 F F F
  0.9997743251911330  0.2495040137777170  0.2287152300634150 T T T
  0.3316539290975340  0.4149030561697910  0.3436807959194610 T T T
  0.0814582866214337  0.4189842201365650  0.0029390379043406 F F F
  0.4159795693916240  0.0839091019016749  0.1162281614097580 F F F
  0.2518716197947770  0.2509731676935160  0.2295077048254650 T T T
  0.0857288480675393  0.4155669178845970  0.3407942543796590 T T T
  0.0811423466896173  0.1620059338280910  0.0029354514586330 F F F
  0.4161955538975160  0.3318633759672880  0.1159313210441580 F F F
  0.2515723246470640  0.0020173974936952  0.2292914014640030 T T T
  0.0857933540737719  0.1700418694845140  0.3413706329211270 T T T
  0.8383765207754760  0.4191436946557300  0.0035788085438284 F F F
  0.6685238548819330  0.0838567485756556  0.1159341348423550 F F F
  0.4993369852915000  0.2494587861857410  0.2290817987832840 T T T
  0.8302378494705280  0.4147557475053110  0.3419083847674430 T T T
  0.5814416853325920  0.4186500362017400  0.0032773581667556 F F F
  0.9161993504713950  0.0838453423004069  0.1156845278272770 F F F
  0.7517145661121770  0.2492130507697250  0.2290019744440240 T T T
  0.5876127111071840  0.4146283010035110  0.3414770394071380 T T T
  0.5808854271553300  0.1616505786167790  0.0035717676909925 F F F
  0.9162323767505000  0.3314954431727770  0.1158455519217010 F F F
  0.7510667330980850  0.0007362699006208  0.2290305086843820 T T T
  0.5871332648284100  0.1712335179372740  0.3418066479610220 T T T
  0.3373574145638830  0.9184187374159410  0.0034902385436979 F F F
  0.1678551955437730  0.5835456682201891  0.1159965371297460 F F F
  0.9992717020037110  0.7496890307915440  0.2293031638571180 T T T
  0.3295960350036610  0.9154898687116100  0.3415489043767150 T T T
  0.0814164707704705  0.9186592089312310  0.0037798651760212 F F F
  0.4160878350328550  0.5840819985175900  0.1157031500119460 F F F
  0.2518571520418580  0.7488144188563770  0.2293683063707660 T T T
  0.0861750742445224  0.9148649821009580  0.3419067878387170 T T T
  0.0816654966580259  0.6627387292838020  0.0035816809367546 F F F
  0.4165051432441520  0.8322212923398240  0.1160020848301640 F F F
  0.2519659999807620  0.5018673072211400  0.2293804927799810 T T T
  0.0860231188839577  0.6707443990732710  0.3414539880139100 T T T
  0.8380256923730370  0.9188587269257620  0.0029373722344488 F F F
  0.6682870195304100  0.5839666927727980  0.1159563108761720 F F F
  0.4978532449124340  0.7487734327352560  0.2284839570435580 T T T
  0.8328677714963461  0.9162539560902730  0.3417157205742000 T T T
  0.5810590346959690  0.9186016307482840  0.0029794082989909 F F F
  0.9161203885681030  0.5842182496696470  0.1161604812253070 F F F
  0.7509100369920110  0.7494326683456480  0.2290162997712030 T T T
  0.5880375495882150  0.9162881158713529  0.3425951030136720 T T T
  0.5807686665611980  0.6620762547375630  0.0030003632752980 F F F
  0.9160360304425690  0.8317241682186560  0.1161427626974070 F F F
  0.7514361118576430  0.5016738935238370  0.2290664900750340 T T T
  0.5885573833792750  0.6730707665748530  0.3419763883968730 T T T
  0.3301428890636940  0.5319018642080310  0.5099518745025480 T T T
  0.3297465308561410  0.6423123802071660  0.5058147080363040 T T T
  0.3293260806503680  0.4239830182031600  0.4889461396267050 T T T
  0.4336116861252110  0.6540276644598680  0.4607851180440930 T T T
