Pd   Cu   C    O    H 
   1.00000000000000     
  10.5475997924999998   0.0000000000000000   0.0000000000000000
  -5.2737998961999999   9.1344893692000007   0.0000000000000000
   0.0000000000000000   0.0000000000000000  18.4589996338000013
Pd   Cu   C    O    H 
16  48  1  2  1  
Selective dynamics
Direct
  0.3332809424891110  0.1666210380442190  0.0002587447096118 F F F
  0.1668109105724940  0.3331101249797040  0.1156495363969230 F F F
  0.0008019348939214  0.0002705594243011  0.2284834385697250 T T T
  0.3348162837654700  0.1658863842701380  0.3445805873434720 T T T
  0.8334264963584840  0.1665564738221620  0.9992826457303891 F F F
  0.6669276627625250  0.3331130736174330  0.1163167788718340 F F F
  0.5008159779276939  0.0001048401757444  0.2289207894162710 T T T
  0.8347220910891050  0.1674108776026770  0.3446523481299200 T T T
  0.3334517728461180  0.6667068380455490  0.9998766049003081 F F F
  0.1666735352737310  0.8335447851056870  0.1170193255459400 F F F
  0.0007004576858805  0.5003089883984730  0.2285097506326390 T T T
  0.3347647609518700  0.6691568015115980  0.3468662339920810 T T T
  0.8333785657720230  0.6667486459326210  0.0002710124708400 F F F
  0.6670099667208260  0.8332903171101550  0.1157177236240230 F F F
  0.5001164215257530  0.4999134712749370  0.2292617452104790 T T T
  0.8341278798919159  0.6666534426030000  0.3447934573391580 T T T
  0.3379921667939880  0.4193498814083650  0.0029704307919047 F F F
  0.1683259384188180  0.0840562889688101  0.1161420971250490 F F F
  0.9996901547794290  0.2495562929226270  0.2287382331533930 T T T
  0.3320853134515290  0.4152006089668060  0.3444781283039400 T T T
  0.0814582866214337  0.4189842201365650  0.0029390379043406 F F F
  0.4159795693916240  0.0839091019016749  0.1162281614097580 F F F
  0.2517005268737410  0.2513344839749510  0.2296890233300600 T T T
  0.0851722424581922  0.4154703242885350  0.3406412819211790 T T T
  0.0811423466896173  0.1620059338280910  0.0029354514586330 F F F
  0.4161955538975160  0.3318633759672880  0.1159313210441580 F F F
  0.2513871226926130  0.0020503474059836  0.2292092081537120 T T T
  0.0852279742181068  0.1694874066630590  0.3412745819503730 T T T
  0.8383765207754760  0.4191436946557300  0.0035788085438284 F F F
  0.6685238548819330  0.0838567485756556  0.1159341348423550 F F F
  0.4992435360749570  0.2494988115824630  0.2290191457683830 T T T
  0.8301652997194680  0.4148264982011720  0.3418490997140890 T T T
  0.5814416853325920  0.4186500362017400  0.0032773581667556 F F F
  0.9161993504713950  0.0838453423004069  0.1156845278272770 F F F
  0.7516450762249460  0.2492111125061740  0.2289693679794810 T T T
  0.5877060690127180  0.4144743205593000  0.3413876439299560 T T T
  0.5808854271553300  0.1616505786167790  0.0035717676909925 F F F
  0.9162323767505000  0.3314954431727770  0.1158455519217010 F F F
  0.7510927543406040  0.0008681318522719  0.2289532662688460 T T T
  0.5871214750442770  0.1712666077091570  0.3417606004074120 T T T
  0.3373574145638830  0.9184187374159410  0.0034902385436979 F F F
  0.1678551955437730  0.5835456682201891  0.1159965371297460 F F F
  0.9991692308203211  0.7496528432398510  0.2292839231852000 T T T
  0.3294064871369360  0.9154924246610530  0.3414263114881560 T T T
  0.0814164707704705  0.9186592089312310  0.0037798651760212 F F F
  0.4160878350328550  0.5840819985175900  0.1157031500119460 F F F
  0.2519248315573250  0.7485823983545430  0.2293317879789920 T T T
  0.0858614287732848  0.9147573381530451  0.3418590962103420 T T T
  0.0816654966580259  0.6627387292838020  0.0035816809367546 F F F
  0.4165051432441520  0.8322212923398240  0.1160020848301640 F F F
  0.2520464115683150  0.5019108688329870  0.2295161777828130 T T T
  0.0855825015972727  0.6708672946928970  0.3414037338884700 T T T
  0.8380256923730370  0.9188587269257620  0.0029373722344488 F F F
  0.6682870195304100  0.5839666927727980  0.1159563108761720 F F F
  0.4976094700414680  0.7487328484103560  0.2285485999951290 T T T
  0.8322865388209950  0.9160941195178940  0.3416898923747100 T T T
  0.5810590346959690  0.9186016307482840  0.0029794082989909 F F F
  0.9161203885681030  0.5842182496696470  0.1161604812253070 F F F
  0.7508732896115260  0.7493825952341240  0.2289169008635530 T T T
  0.5879161202983449  0.9164880570930340  0.3422231763066530 T T T
  0.5807686665611980  0.6620762547375630  0.0030003632752980 F F F
  0.9160360304425690  0.8317241682186560  0.1161427626974070 F F F
  0.7513181974942280  0.5017579699107130  0.2290277499292090 T T T
  0.5886453159952860  0.6735145846515140  0.3414850037007680 T T T
  0.3299850836184320  0.5308957993008080  0.5048493748402409 T T T
  0.3311184288420820  0.6423823326082641  0.4955662112103670 T T T
  0.3272775792541510  0.4228560613581110  0.4804479106270210 T T T
  0.4082957910599630  0.6207128806386140  0.4829595451707860 T T T
