Cu48 Pd16 H1 C1 O2
1.0
10.547600 0.000000 0.000000
-5.273800 9.134489 0.000000
0.000000 0.000000 18.459000
Pd Cu C O H
16 48 1 2 1
Selective dynamics
direct
0.333240 0.166153 0.000097 F F F Pd
0.166774 0.332626 0.115405 F F F Pd
0.000545 -0.000945 0.227925 T T T Pd
0.334516 0.165166 0.344412 T T T Pd
0.833212 0.165946 0.999080 F F F Pd
0.666650 0.332398 0.115994 F F F Pd
0.500785 -0.000968 0.229150 T T T Pd
0.833897 0.165857 0.343574 T T T Pd
0.333471 0.666237 0.999924 F F F Pd
0.166740 0.832844 0.116908 F F F Pd
0.000645 0.499571 0.228038 T T T Pd
0.336499 0.667564 0.348704 T T T Pd
0.833172 0.666198 -0.000020 F F F Pd
0.666657 0.832471 0.115617 F F F Pd
0.500341 0.499011 0.228884 T T T Pd
0.834497 0.664998 0.344242 T T T Pd
0.337944 0.418992 0.002873 F F F Cu
0.168259 0.083366 0.115829 F F F Cu
-0.000596 0.248502 0.227935 T T T Cu
0.330702 0.413464 0.342582 T T T Cu
0.081542 0.418626 0.002803 F F F Cu
0.415851 0.083115 0.116098 F F F Cu
0.251789 0.249772 0.228892 T T T Cu
0.085275 0.414404 0.339171 T T T Cu
0.081132 0.161591 0.002733 F F F Cu
0.416042 0.331197 0.115690 F F F Cu
0.251627 0.000875 0.229154 T T T Cu
0.085209 0.168750 0.340145 T T T Cu
0.838364 0.418675 0.003312 F F F Cu
0.668158 0.083008 0.115745 F F F Cu
0.499056 0.248407 0.228889 T T T Cu
0.829534 0.413442 0.341163 T T T Cu
0.581253 0.418161 0.003039 F F F Cu
0.915856 0.083010 0.115261 F F F Cu
0.751049 0.248069 0.228525 T T T Cu
0.586655 0.412998 0.341473 T T T Cu
0.580678 0.160976 0.003377 F F F Cu
0.916029 0.330878 0.115451 F F F Cu
0.750462 -0.000590 0.228785 T T T Cu
0.586527 0.169980 0.341740 T T T Cu
0.337328 0.917767 0.003438 F F F Cu
0.167962 0.583066 0.115935 F F F Cu
0.999285 0.748846 0.228895 T T T Cu
0.329373 0.914132 0.341887 T T T Cu
0.081450 0.918088 0.003580 F F F Cu
0.416014 0.583539 0.115733 F F F Cu
0.252129 0.748120 0.229710 T T T Cu
0.086029 0.913589 0.341452 T T T Cu
0.081787 0.662281 0.003465 F F F Cu
0.416429 0.831487 0.116126 F F F Cu
0.252188 0.501533 0.229314 T T T Cu
0.086225 0.669710 0.340706 T T T Cu
0.837784 0.918229 0.002645 F F F Cu
0.668035 0.583234 0.115695 F F F Cu
0.497655 0.747740 0.228861 T T T Cu
0.833454 0.915200 0.340971 T T T Cu
0.580815 0.917899 0.002899 F F F Cu
0.916016 0.583608 0.115809 F F F Cu
0.750715 0.748393 0.228671 T T T Cu
0.587552 0.914785 0.342794 T T T Cu
0.580537 0.661553 0.002895 F F F Cu
0.915828 0.830942 0.115764 F F F Cu
0.751079 0.500575 0.228727 T T T Cu
0.588049 0.669440 0.340810 T T T Cu
0.297063 0.509097 0.514519 T T T C
0.253433 0.594809 0.515679 T T T O
0.305204 0.404304 0.495161 T T T O
0.511468 0.726825 0.451950 T T T H
