Pd   Cu   C    O    H 
   1.00000000000000     
  10.5475997924999998   0.0000000000000000   0.0000000000000000
  -5.2737998961999999   9.1344893692000007   0.0000000000000000
   0.0000000000000000   0.0000000000000000  18.4589996338000013
Pd   Cu   C    O    H 
16  48  1  2  1  
Selective dynamics
Direct
  0.3332809424891110  0.1666210380442190  0.0002587447096118 F F F
  0.1668109105724940  0.3331101249797040  0.1156495363969230 F F F
  0.0006673986726682  0.0002794310553114  0.2283695842818500 T T T
  0.3344335941421190  0.1651297463331930  0.3442300988194230 T T T
  0.8334264963584840  0.1665564738221620  0.9992826457303891 F F F
  0.6669276627625250  0.3331130736174330  0.1163167788718340 F F F
  0.5004531570004430  0.0000371692442442  0.2287636564656240 T T T
  0.8342477708276450  0.1672136435891500  0.3448212765574890 T T T
  0.3334517728461180  0.6667068380455490  0.9998766049003081 F F F
  0.1666735352737310  0.8335447851056870  0.1170193255459400 F F F
  0.0005150053191443  0.5003555360259360  0.2283720259337940 T T T
  0.3343131206679860  0.6700200579872519  0.3469766558453880 T T T
  0.8333785657720230  0.6667486459326210  0.0002710124708400 F F F
  0.6670099667208260  0.8332903171101550  0.1157177236240230 F F F
  0.4993986891908760  0.4995776023877030  0.2293949308240000 T T T
  0.8335336727254300  0.6667453379109600  0.3449291614184560 T T T
  0.3379921667939880  0.4193498814083650  0.0029704307919047 F F F
  0.1683259384188180  0.0840562889688101  0.1161420971250490 F F F
  0.9995218139560220  0.2496608512124470  0.2287842393333510 T T T
  0.3329480821595180  0.4157957145608360  0.3460727930728990 T T T
  0.0814582866214337  0.4189842201365650  0.0029390379043406 F F F
  0.4159795693916240  0.0839091019016749  0.1162281614097580 F F F
  0.2513583410316680  0.2520571165378200  0.2300516603392500 T T T
  0.0840590312394980  0.4152771370964100  0.3403353370042200 T T T
  0.0811423466896173  0.1620059338280910  0.0029354514586330 F F F
  0.4161955538975160  0.3318633759672880  0.1159313210441580 F F F
  0.2510167187837100  0.0021162472305605  0.2290448215331300 T T T
  0.0840972145067767  0.1683784810201490  0.3410824800088650 T T T
  0.8383765207754760  0.4191436946557300  0.0035788085438284 F F F
  0.6685238548819330  0.0838567485756556  0.1159341348423550 F F F
  0.4990566376418710  0.2495788623759050  0.2288938397385820 T T T
  0.8300202002173480  0.4149679995928960  0.3417305296073820 T T T
  0.5814416853325920  0.4186500362017400  0.0032773581667556 F F F
  0.9161993504713950  0.0838453423004069  0.1156845278272770 F F F
  0.7515060964504841  0.2492072359790710  0.2289041550503940 T T T
  0.5878927848237860  0.4141663596708800  0.3412088529755910 T T T
  0.5808854271553300  0.1616505786167790  0.0035717676909925 F F F
  0.9162323767505000  0.3314954431727770  0.1158455519217010 F F F
  0.7511447968256419  0.0011318557555739  0.2287987814377740 T T T
  0.5870978954760130  0.1713327872529220  0.3416685053001910 T T T
  0.3373574145638830  0.9184187374159410  0.0034902385436979 F F F
  0.1678551955437730  0.5835456682201891  0.1159965371297460 F F F
  0.9989642884535430  0.7495804681364650  0.2292454418413640 T T T
  0.3290273914034860  0.9154975365599400  0.3411811257110390 T T T
  0.0814164707704705  0.9186592089312310  0.0037798651760212 F F F
  0.4160878350328550  0.5840819985175900  0.1157031500119460 F F F
  0.2520601905882600  0.7481183573508760  0.2292587511954450 T T T
  0.0852341378308097  0.9145420502572180  0.3417637129535930 T T T
  0.0816654966580259  0.6627387292838020  0.0035816809367546 F F F
  0.4165051432441520  0.8322212923398240  0.1160020848301640 F F F
  0.2522072347434230  0.5019979920566801  0.2297875477884760 T T T
  0.0847012670239025  0.6711130859321490  0.3413032256375890 T T T
  0.8380256923730370  0.9188587269257620  0.0029373722344488 F F F
  0.6682870195304100  0.5839666927727980  0.1159563108761720 F F F
  0.4971219202995340  0.7486516797605560  0.2286778858982710 T T T
  0.8311240734702920  0.9157744463731350  0.3416382359757290 T T T
  0.5810590346959690  0.9186016307482840  0.0029794082989909 F F F
  0.9161203885681030  0.5842182496696470  0.1161604812253070 F F F
  0.7507997948505580  0.7492824490110760  0.2287181030482510 T T T
  0.5876732617186060  0.9168879395363940  0.3414793228926170 T T T
  0.5807686665611980  0.6620762547375630  0.0030003632752980 F F F
  0.9160360304425690  0.8317241682186560  0.1161427626974070 F F F
  0.7510823687673990  0.5019261226844660  0.2289502696375580 T T T
  0.5888211812273100  0.6744022208048360  0.3405022343085590 T T T
  0.3296694727279070  0.5288836694863620  0.4946443755156270 T T T
  0.3338622248139630  0.6425222374104610  0.4750692175584920 T T T
  0.3231805764617160  0.4206021476680140  0.4634514526276520 T T T
  0.3576640009294680  0.5540833129961060  0.5273083994241720 T T T
