Cu48 Pd16 H1 C1 O2
1.0
10.547600 0.000000 0.000000
-5.273800 9.134489 0.000000
0.000000 0.000000 18.459000
Pd Cu C O H
16 48 1 2 1
Selective dynamics
direct
0.333225 0.166374 0.000193 F F F Pd
0.166727 0.332812 0.115454 F F F Pd
0.000319 -0.000817 0.227973 T T T Pd
0.334241 0.164901 0.344292 T T T Pd
0.833171 0.166110 0.999162 F F F Pd
0.666622 0.332604 0.116089 F F F Pd
0.500672 -0.000804 0.229253 T T T Pd
0.833262 0.165747 0.343841 T T T Pd
0.333484 0.666443 0.999978 F F F Pd
0.166720 0.833070 0.116974 F F F Pd
0.000527 0.499883 0.227957 T T T Pd
0.338289 0.668897 0.349340 T T T Pd
0.833113 0.666398 0.000083 F F F Pd
0.666648 0.832729 0.115736 F F F Pd
0.500044 0.499217 0.229040 T T T Pd
0.834098 0.665374 0.344220 T T T Pd
0.337949 0.419204 0.002944 F F F Cu
0.168191 0.083542 0.115915 F F F Cu
-0.000828 0.248696 0.227999 T T T Cu
0.331427 0.414007 0.343204 T T T Cu
0.081537 0.418818 0.002850 F F F Cu
0.415835 0.083308 0.116206 F F F Cu
0.251543 0.250326 0.229106 T T T Cu
0.084805 0.414693 0.338650 T T T Cu
0.081098 0.161781 0.002810 F F F Cu
0.416025 0.331419 0.115779 F F F Cu
0.251428 0.001076 0.229166 T T T Cu
0.084436 0.168188 0.339999 T T T Cu
0.838358 0.418875 0.003396 F F F Cu
0.668140 0.083223 0.115863 F F F Cu
0.498914 0.248637 0.228899 T T T Cu
0.829442 0.413879 0.341154 T T T Cu
0.581236 0.418377 0.003148 F F F Cu
0.915757 0.083173 0.115367 F F F Cu
0.750832 0.248209 0.228619 T T T Cu
0.586628 0.413016 0.341320 T T T Cu
0.580655 0.161158 0.003483 F F F Cu
0.915980 0.331065 0.115520 F F F Cu
0.750312 -0.000256 0.228926 T T T Cu
0.586438 0.170140 0.341891 T T T Cu
0.337322 0.917965 0.003511 F F F Cu
0.167957 0.583299 0.115961 F F F Cu
0.999134 0.749101 0.228919 T T T Cu
0.329548 0.914334 0.341861 T T T Cu
0.081409 0.918269 0.003670 F F F Cu
0.416027 0.583785 0.115790 F F F Cu
0.252375 0.748133 0.229745 T T T Cu
0.085737 0.913654 0.341504 T T T Cu
0.081773 0.662479 0.003518 F F F Cu
0.416445 0.831744 0.116196 F F F Cu
0.252393 0.501927 0.229453 T T T Cu
0.086121 0.670371 0.340483 T T T Cu
0.837718 0.918400 0.002756 F F F Cu
0.668014 0.583488 0.115803 F F F Cu
0.497517 0.748075 0.229003 T T T Cu
0.832507 0.915301 0.341122 T T T Cu
0.580804 0.918091 0.002995 F F F Cu
0.915971 0.583846 0.115873 F F F Cu
0.750513 0.748609 0.228739 T T T Cu
0.587169 0.914675 0.343353 T T T Cu
0.580526 0.661763 0.002995 F F F Cu
0.915752 0.831163 0.115872 F F F Cu
0.750912 0.500925 0.228738 T T T Cu
0.587690 0.670862 0.340851 T T T Cu
0.293513 0.511401 0.506495 T T T C
0.253863 0.601241 0.500387 T T T O
0.295197 0.402673 0.485225 T T T O
0.523118 0.697211 0.479514 T T T H
