Si
1
11 0 0
0 11 0
0 0 11
Si
64
C
0 0 0
0 2.75 2.75
2.75 0 2.75
2.75 2.75 0
1.375 1.375 1.375
1.375 4.125 4.125
4.125 1.375 4.125
4.125 4.125 1.375
0 0 5.5
0 2.75 8.25
2.75 0 8.25
2.75 2.75 5.5
1.375 1.375 6.875
1.375 4.125 9.625
4.125 1.375 9.625
4.125 4.125 6.875
0 5.5 0
0 8.25 2.75
2.75 5.5 2.75
2.75 8.25 0
1.375 6.875 1.375
1.375 9.625 4.125
4.125 6.875 4.125
4.125 9.625 1.375
0 5.5 5.5
0 8.25 8.25
2.75 5.5 8.25
2.75 8.25 5.5
1.375 6.875 6.875
1.375 9.625 9.625
4.125 6.875 9.625
4.125 9.625 6.875
5.5 0 0
5.5 2.75 2.75
8.25 0 2.75
8.25 2.75 0
6.875 1.375 1.375
6.875 4.125 4.125
9.625 1.375 4.125
9.625 4.125 1.375
5.5 0 5.5
5.5 2.75 8.25
8.25 0 8.25
8.25 2.75 5.5
6.875 1.375 6.875
6.875 4.125 9.625
9.625 1.375 9.625
9.625 4.125 6.875
5.5 5.5 0
5.5 8.25 2.75
8.25 5.5 2.75
8.25 8.25 0
6.875 6.875 1.375
6.875 9.625 4.125
9.625 6.875 4.125
9.625 9.625 1.375
5.5 5.5 5.5
5.5 8.25 8.25
8.25 5.5 8.25
8.25 8.25 5.5
6.875 6.875 6.875
6.875 9.625 9.625
9.625 6.875 9.625
9.625 9.625 6.875
