Pd   Cu   C    O    H 
   1.00000000000000     
  10.5475997924999998   0.0000000000000000   0.0000000000000000
  -5.2737998961999999   9.1344893692000007   0.0000000000000000
   0.0000000000000000   0.0000000000000000  18.4589996338000013
Pd   Cu   C    O    H 
16  48  1  2  1  
Selective dynamics
Direct
  0.3332809424891110  0.1666210380442195  0.0002587447096118 F F F
  0.1668109105724938  0.3331101249797044  0.1156495363969228 F F F
  0.0006001305620584  0.0002838668708223  0.2283126571379056 T T T
  0.3342422493304346  0.1647514273647184  0.3440548545573979 T T T
  0.8334264963584843  0.1665564738221619  0.9992826457303892 F F F
  0.6669276627625251  0.3331130736174330  0.1163167788718340 F F F
  0.5002717465368139  0.0000033337784974  0.2286850899903070 T T T
  0.8340106106969140  0.1671150265823884  0.3449057407712602 T T T
  0.3334517728461179  0.6667068380455490  0.9998766049003081 F F F
  0.1666735352737305  0.8335447851056870  0.1170193255459395 F F F
  0.0004222791357841  0.5003788098396837  0.2283031635843691 T T T
  0.3340873005260233  0.6704516862250856  0.3470318667720440 T T T
  0.8333785657720227  0.6667486459326213  0.0002710124708400 F F F
  0.6670099667208262  0.8332903171101549  0.1157177236240230 F F F
  0.4990398230234441  0.4994096679440761  0.2294615236307618 T T T
  0.8332365691421787  0.6667912855649588  0.3449970134580937 T T T
  0.3379921667939882  0.4193498814083654  0.0029704307919047 F F F
  0.1683259384188176  0.0840562889688101  0.1161420971250493 F F F
  0.9994376435443409  0.2497131303573534  0.2288072424233240 T T T
  0.3333794665135131  0.4160932673578545  0.3468701254573638 T T T
  0.0814582866214337  0.4189842201365650  0.0029390379043406 F F F
  0.4159795693916237  0.0839091019016749  0.1162281614097580 F F F
  0.2511872481106159  0.2524184328192543  0.2302329788438397 T T T
  0.0835024256301621  0.4151805435003627  0.3401823645457215 T T T
  0.0811423466896173  0.1620059338280910  0.0029354514586331 F F F
  0.4161955538975164  0.3318633759672878  0.1159313210441582 F F F
  0.2508315168292608  0.0021491971428565  0.2289626282228347 T T T
  0.0835318346511131  0.1678240181987062  0.3409864290381298 T T T
  0.8383765207754763  0.4191436946557303  0.0035788085438284 F F F
  0.6685238548819328  0.0838567485756556  0.1159341348423553 F F F
  0.4989631884253440  0.2496188877726424  0.2288311867236898 T T T
  0.8299476504662847  0.4150387502887786  0.3416712445540297 T T T
  0.5814416853325923  0.4186500362017398  0.0032773581667556 F F F
  0.9161993504713948  0.0838453423004069  0.1156845278272769 F F F
  0.7514366065632363  0.2492052977155094  0.2288715485858595 T T T
  0.5879861427293290  0.4140123792266844  0.3411194574984112 T T T
  0.5808854271553301  0.1616505786167792  0.0035717676909925 F F F
  0.9162323767505000  0.3314954431727770  0.1158455519217014 F F F
  0.7511708180681460  0.0012637177072303  0.2287215390222385 T T T
  0.5870861056918746  0.1713658770248221  0.3416224577465657 T T T
  0.3373574145638827  0.9184187374159408  0.0034902385436979 F F F
  0.1678551955437726  0.5835456682201894  0.1159965371297460 F F F
  0.9988618172701488  0.7495442805847569  0.2292262011694549 T T T
  0.3288378435367479  0.9155000925094060  0.3410585328224667 T T T
  0.0814164707704705  0.9186592089312312  0.0037798651760212 F F F
  0.4160878350328545  0.5840819985175898  0.1157031500119459 F F F
  0.2521278701037374  0.7478863368490519  0.2292222328036667 T T T
  0.0849204923595838  0.9144344063092998  0.3417160213252257 T T T
  0.0816654966580259  0.6627387292838023  0.0035816809367546 F F F
  0.4165051432441516  0.8322212923398240  0.1160020848301642 F F F
  0.2522876463309761  0.5020415536685194  0.2299232327913044 T T T
  0.0842606497372227  0.6712359815517671  0.3412529715121667 T T T
  0.8380256923730371  0.9188587269257624  0.0029373722344488 F F F
  0.6682870195304105  0.5839666927727976  0.1159563108761716 F F F
  0.4968781454285698  0.7486110954356725  0.2287425288498456 T T T
  0.8305428407949357  0.9156146098007742  0.3416124077762416 T T T
  0.5810590346959685  0.9186016307482844  0.0029794082989909 F F F
  0.9161203885681032  0.5842182496696466  0.1161604812253074 F F F
  0.7507630474700914  0.7492323758995606  0.2286187041405827 T T T
  0.5875518324287262  0.9170878807580928  0.3411073961855773 T T T
  0.5807686665611982  0.6620762547375634  0.0030003632752980 F F F
  0.9160360304425694  0.8317241682186562  0.1161427626974074 F F F
  0.7509644544039792  0.5020101990713602  0.2289115294917450 T T T
  0.5889091138433242  0.6748460388815106  0.3400108496124494 T T T
  0.3295116672826304  0.5278776045791572  0.4895418758533341 T T T
  0.3352341227998966  0.6425921898115529  0.4648207207325400 T T T
  0.3211320750655020  0.4194751908229611  0.4549532236279732 T T T
  0.3323481058642384  0.5207685291748538  0.5494828265508477 T T T
