CONTCAR\(3)                             
   1.00000000000000     
    10.5475997924999998    0.0000000000000000    0.0000000000000000
    -5.2737998961999999    9.1344893692000007    0.0000000000000000
     0.0000000000000000    0.0000000000000000   18.4589996338000013
   Pd   Cu   C    O    H 
    16    48     1     2     1
Selective dynamics
Direct
  0.3332809424891110  0.1666210380442195  0.0002587447096118   F   F   F
  0.1668109105724938  0.3331101249797044  0.1156495363969228   F   F   F
  0.0010710073364226  0.0002528161622767  0.2287111471454752   T   T   T
  0.3355816630121754  0.1673996601440322  0.3452815643915698   T   T   T
  0.8334264963584843  0.1665564738221619  0.9992826457303892   F   F   F
  0.6669276627625251  0.3331130736174330  0.1163167788718340   F   F   F
  0.5015416197821957  0.0002401820387436  0.2292350553175616   T   T   T
  0.8356707316120255  0.1678053456297300  0.3443144912747815   T   T   T
  0.3334517728461179  0.6667068380455490  0.9998766049003081   F   F   F
  0.1666735352737305  0.8335447851056870  0.1170193255459395   F   F   F
  0.0010713624193476  0.5002158931435421  0.2287852000303310   T   T   T
  0.3356680415196429  0.6674302885602920  0.3466453902854675   T   T   T
  0.8333785657720227  0.6667486459326213  0.0002710124708400   F   F   F
  0.6670099667208262  0.8332903171101549  0.1157177236240230   F   F   F
  0.5015518861955068  0.5005852090494075  0.2289953739834355   T   T   T
  0.8353162942248922  0.6664696519870797  0.3445220491805626   T   T   T
  0.3379921667939882  0.4193498814083654  0.0029704307919047   F   F   F
  0.1683259384188176  0.0840562889688101  0.1161420971250493   F   F   F
  0.0000268364262436  0.2493471763429854  0.2286462207934824   T   T   T
  0.3303597760355498  0.4140103977787439  0.3412887987660215   T   T   T
  0.0814582866214337  0.4189842201365650  0.0029390379043406   F   F   F
  0.4159795693916237  0.0839091019016749  0.1162281614097580   F   F   F
  0.2523848985578913  0.2498892188492160  0.2289637493116826   T   T   T
  0.0873986648955821  0.4158566986727835  0.3412531717551026   T   T   T
  0.0811423466896173  0.1620059338280910  0.0029354514586331   F   F   F
  0.4161955538975164  0.3318633759672878  0.1159313210441582   F   F   F
  0.2521279305104194  0.0019185477568318  0.2295379813948798   T   T   T
  0.0874894936407691  0.1717052579488809  0.3416587858333863   T   T   T
  0.8383765207754763  0.4191436946557303  0.0035788085438284   F   F   F
  0.6685238548819328  0.0838567485756556  0.1159341348423553   F   F   F
  0.4996173329411252  0.2493387099955726  0.2292697578279836   T   T   T
  0.8304554987237055  0.4145434954177219  0.3420862399274996   T   T   T
  0.5814416853325923  0.4186500362017398  0.0032773581667556   F   F   F
  0.9161993504713948  0.0838453423004069  0.1156845278272769   F   F   F
  0.7519230357738710  0.2492188655603837  0.2290997938376557   T   T   T
  0.5873326373905821  0.4150902423361429  0.3417452258386889   T   T   T
  0.5808854271553301  0.1616505786167792  0.0035717676909925   F   F   F
  0.9162323767505001  0.3314954431727770  0.1158455519217014   F   F   F
  0.7509886693705298  0.0003406840456635  0.2292622359309860   T   T   T
  0.5871686341808052  0.1711342486216279  0.3419447906218551   T   T   T
  0.3373574145638827  0.9184187374159407  0.0034902385436979   F   F   F
  0.1678551955437726  0.5835456682201894  0.1159965371297460   F   F   F
  0.9995791155538828  0.7497975934466290  0.2293608858728729   T   T   T
  0.3301646786038352  0.9154822008632807  0.3419166830423948   T   T   T
  0.0814164707704705  0.9186592089312313  0.0037798651760212   F   F   F
  0.4160878350328545  0.5840819985175898  0.1157031500119459   F   F   F
  0.2516541134954541  0.7495104803618786  0.2294778615460887   T   T   T
  0.0871160106582358  0.9151879139447030  0.3420498627238356   T   T   T
  0.0816654966580259  0.6627387292838023  0.0035816809367546   F   F   F
  0.4165051432441516  0.8322212923398240  0.1160020848301642   F   F   F
  0.2517247652180987  0.5017366223855998  0.2289734377714885   T   T   T
  0.0873449707440099  0.6703757122143934  0.3416047503902289   T   T   T
  0.8380256923730371  0.9188587269257624  0.0029373722344488   F   F   F
  0.6682870195304105  0.5839666927727976  0.1159563108761716   F   F   F
  0.4985845695253318  0.7488951857099484  0.2282900281888414   T   T   T
  0.8346114695223971  0.9167334658074114  0.3417932051726691   T   T   T
  0.5810590346959685  0.9186016307482845  0.0029794082989909   F   F   F
  0.9161203885681033  0.5842182496696466  0.1161604812253074   F   F   F
  0.7510202791334595  0.7495828876802164  0.2293144964941543   T   T   T
  0.5884018374578255  0.9156882922063099  0.3437108831347269   T   T   T
  0.5807686665611982  0.6620762547375634  0.0030003632752980   F   F   F
  0.9160360304425694  0.8317241682186562  0.1161427626974074   F   F   F
  0.7517898549478911  0.5014216643632021  0.2291827105125095   T   T   T
  0.5882935855312401  0.6717393123448703  0.3434505424851858   T   T   T
  0.3306163053994808  0.5349200589296975  0.5252593734894700   T   T   T
  0.3256308368983195  0.6421025230038694  0.5365601985141233   T   T   T
  0.3354715848390171  0.4273638887383078  0.5144408266257544   T   T   T
  0.5095593713209537  0.7539720159236315  0.3942618366640190   T   T   T
 
  0.00000000E+00  0.00000000E+00  0.00000000E+00
  0.00000000E+00  0.00000000E+00  0.00000000E+00
  0.00000000E+00  0.00000000E+00  0.00000000E+00
  0.00000000E+00  0.00000000E+00  0.00000000E+00
  0.00000000E+00  0.00000000E+00  0.00000000E+00
  0.00000000E+00  0.00000000E+00  0.00000000E+00
  0.00000000E+00  0.00000000E+00  0.00000000E+00
  0.00000000E+00  0.00000000E+00  0.00000000E+00
  0.00000000E+00  0.00000000E+00  0.00000000E+00
  0.00000000E+00  0.00000000E+00  0.00000000E+00
  0.00000000E+00  0.00000000E+00  0.00000000E+00
  0.00000000E+00  0.00000000E+00  0.00000000E+00
  0.00000000E+00  0.00000000E+00  0.00000000E+00
  0.00000000E+00  0.00000000E+00  0.00000000E+00
  0.00000000E+00  0.00000000E+00  0.00000000E+00
  0.00000000E+00  0.00000000E+00  0.00000000E+00
  0.00000000E+00  0.00000000E+00  0.00000000E+00
  0.00000000E+00  0.00000000E+00  0.00000000E+00
  0.00000000E+00  0.00000000E+00  0.00000000E+00
  0.00000000E+00  0.00000000E+00  0.00000000E+00
  0.00000000E+00  0.00000000E+00  0.00000000E+00
  0.00000000E+00  0.00000000E+00  0.00000000E+00
  0.00000000E+00  0.00000000E+00  0.00000000E+00
  0.00000000E+00  0.00000000E+00  0.00000000E+00
  0.00000000E+00  0.00000000E+00  0.00000000E+00
  0.00000000E+00  0.00000000E+00  0.00000000E+00
  0.00000000E+00  0.00000000E+00  0.00000000E+00
  0.00000000E+00  0.00000000E+00  0.00000000E+00
  0.00000000E+00  0.00000000E+00  0.00000000E+00
  0.00000000E+00  0.00000000E+00  0.00000000E+00
  0.00000000E+00  0.00000000E+00  0.00000000E+00
  0.00000000E+00  0.00000000E+00  0.00000000E+00
  0.00000000E+00  0.00000000E+00  0.00000000E+00
  0.00000000E+00  0.00000000E+00  0.00000000E+00
  0.00000000E+00  0.00000000E+00  0.00000000E+00
  0.00000000E+00  0.00000000E+00  0.00000000E+00
  0.00000000E+00  0.00000000E+00  0.00000000E+00
  0.00000000E+00  0.00000000E+00  0.00000000E+00
  0.00000000E+00  0.00000000E+00  0.00000000E+00
  0.00000000E+00  0.00000000E+00  0.00000000E+00
  0.00000000E+00  0.00000000E+00  0.00000000E+00
  0.00000000E+00  0.00000000E+00  0.00000000E+00
  0.00000000E+00  0.00000000E+00  0.00000000E+00
  0.00000000E+00  0.00000000E+00  0.00000000E+00
  0.00000000E+00  0.00000000E+00  0.00000000E+00
  0.00000000E+00  0.00000000E+00  0.00000000E+00
  0.00000000E+00  0.00000000E+00  0.00000000E+00
  0.00000000E+00  0.00000000E+00  0.00000000E+00
  0.00000000E+00  0.00000000E+00  0.00000000E+00
  0.00000000E+00  0.00000000E+00  0.00000000E+00
  0.00000000E+00  0.00000000E+00  0.00000000E+00
  0.00000000E+00  0.00000000E+00  0.00000000E+00
  0.00000000E+00  0.00000000E+00  0.00000000E+00
  0.00000000E+00  0.00000000E+00  0.00000000E+00
  0.00000000E+00  0.00000000E+00  0.00000000E+00
  0.00000000E+00  0.00000000E+00  0.00000000E+00
  0.00000000E+00  0.00000000E+00  0.00000000E+00
  0.00000000E+00  0.00000000E+00  0.00000000E+00
  0.00000000E+00  0.00000000E+00  0.00000000E+00
  0.00000000E+00  0.00000000E+00  0.00000000E+00
  0.00000000E+00  0.00000000E+00  0.00000000E+00
  0.00000000E+00  0.00000000E+00  0.00000000E+00
  0.00000000E+00  0.00000000E+00  0.00000000E+00
  0.00000000E+00  0.00000000E+00  0.00000000E+00
  0.00000000E+00  0.00000000E+00  0.00000000E+00
  0.00000000E+00  0.00000000E+00  0.00000000E+00
  0.00000000E+00  0.00000000E+00  0.00000000E+00
  0.00000000E+00  0.00000000E+00  0.00000000E+00
