CONTCAR\(3)                             
   1.00000000000000     
    10.5475997924999998    0.0000000000000000    0.0000000000000000
    -5.2737998961999999    9.1344893692000007    0.0000000000000000
     0.0000000000000000    0.0000000000000000   18.4589996338000013
   Pd   Cu   C    O    H 
    16    48     1     2     1
Selective dynamics
Direct
  0.3332809424891110  0.1666210380442195  0.0002587447096118   F   F   F
  0.1668109105724938  0.3331101249797044  0.1156495363969228   F   F   F
 -0.0000751378047401  0.9999860873605502  0.2287820738806536   T   T   T
  0.3338825079388528  0.1681522382926641  0.3445853030874402   T   T   T
  0.8334264963584843  0.1665564738221619  0.9992826457303892   F   F   F
  0.6669276627625251  0.3331130736174330  0.1163167788718340   F   F   F
  0.4998711593699923  0.0000175716178035  0.2292510599678100   T   T   T
  0.8333243198898552  0.1669138659846605  0.3449566586727553   T   T   T
  0.3334517728461179  0.6667068380455490  0.9998766049003081   F   F   F
  0.1666735352737305  0.8335447851056870  0.1170193255459395   F   F   F
  0.0003068275373284  0.5004212030888556  0.2292020733026846   T   T   T
  0.3321433272386784  0.6668146235545612  0.3460186920888362   T   T   T
  0.8333785657720227  0.6667486459326213  0.0002710124708400   F   F   F
  0.6670099667208262  0.8332903171101549  0.1157177236240230   F   F   F
  0.5003140586992935  0.4998493290472180  0.2285813733614489   T   T   T
  0.8317611970939236  0.6661291638984408  0.3445920694179130   T   T   T
  0.3379921667939882  0.4193498814083654  0.0029704307919047   F   F   F
  0.1683259384188176  0.0840562889688101  0.1161420971250493   F   F   F
  0.9987089517087604  0.2493342052417847  0.2287724014262406   T   T   T
  0.3293356091021736  0.4152238242962675  0.3408617470555880   T   T   T
  0.0814582866214337  0.4189842201365650  0.0029390379043406   F   F   F
  0.4159795693916237  0.0839091019016749  0.1162281614097580   F   F   F
  0.2505058948541509  0.2493770680008918  0.2287237732489643   T   T   T
  0.0849831344621367  0.4139363853838551  0.3413921307501013   T   T   T
  0.0811423466896173  0.1620059338280910  0.0029354514586331   F   F   F
  0.4161955538975164  0.3318633759672878  0.1159313210441582   F   F   F
  0.2509514137789992  0.0008870525169465  0.2298331092040011   T   T   T
  0.0854013465252463  0.1713918024902024  0.3417567194512293   T   T   T
  0.8383765207754763  0.4191436946557303  0.0035788085438284   F   F   F
  0.6685238548819328  0.0838567485756556  0.1159341348423553   F   F   F
  0.4988958530671590  0.2492551431530371  0.2291433331416493   T   T   T
  0.8291151198969177  0.4147508385152332  0.3419951544395973   T   T   T
  0.5814416853325923  0.4186500362017398  0.0032773581667556   F   F   F
  0.9161993504713948  0.0838453423004069  0.1156845278272769   F   F   F
  0.7509220370614269  0.2489695207301468  0.2291833207292200   T   T   T
  0.5855602683975883  0.4146460154318570  0.3419369601284099   T   T   T
  0.5808854271553301  0.1616505786167792  0.0035717676909925   F   F   F
  0.9162323767505001  0.3314954431727770  0.1158455519217014   F   F   F
  0.7506640957482649  0.0013227314861261  0.2289187478066846   T   T   T
  0.5853876657673925  0.1710106563004611  0.3419436789097632   T   T   T
  0.3373574145638827  0.9184187374159407  0.0034902385436979   F   F   F
  0.1678551955437726  0.5835456682201894  0.1159965371297460   F   F   F
  0.9991729667196312  0.7492221302064955  0.2298333699879589   T   T   T
  0.3281717731142804  0.9155325565580116  0.3435803329607015   T   T   T
  0.0814164707704705  0.9186592089312313  0.0037798651760212   F   F   F
  0.4160878350328545  0.5840819985175898  0.1157031500119459   F   F   F
  0.2511277686711863  0.7485058515145412  0.2289361812689094   T   T   T
  0.0834966165046950  0.9163865765891596  0.3420300547056056   T   T   T
  0.0816654966580259  0.6627387292838023  0.0035816809367546   F   F   F
  0.4165051432441516  0.8322212923398240  0.1160020848301642   F   F   F
  0.2506480136769692  0.5012550541305059  0.2287228419563013   T   T   T
  0.0843052770480860  0.6712562540106815  0.3435663852984538   T   T   T
  0.8380256923730371  0.9188587269257624  0.0029373722344488   F   F   F
  0.6682870195304105  0.5839666927727976  0.1159563108761716   F   F   F
  0.4986222092431165  0.7491235774924859  0.2285256701040108   T   T   T
  0.8291795070294246  0.9147148235167711  0.3417134943964439   T   T   T
  0.5810590346959685  0.9186016307482845  0.0029794082989909   F   F   F
  0.9161203885681033  0.5842182496696466  0.1161604812253074   F   F   F
  0.7506829320226295  0.7495041761342242  0.2287964306722704   T   T   T
  0.5861870472622961  0.9148141328093242  0.3420896750064708   T   T   T
  0.5807686665611982  0.6620762547375634  0.0030003632752980   F   F   F
  0.9160360304425694  0.8317241682186562  0.1161427626974074   F   F   F
  0.7507503802759872  0.5011568387805415  0.2291741315905860   T   T   T
  0.5844029684578592  0.6706567834069511  0.3415278076797610   T   T   T
  0.3359086863916603  0.5382887543657199  0.5221684210257709   T   T   T
  0.3466437597985954  0.6543299383877382  0.5267537737539011   T   T   T
  0.3251153747360652  0.4217576460300825  0.5179303174336436   T   T   T
  0.4999392034073102  0.7496794697147885  0.3935568774723827   T   T   T
 
  0.00000000E+00  0.00000000E+00  0.00000000E+00
  0.00000000E+00  0.00000000E+00  0.00000000E+00
  0.00000000E+00  0.00000000E+00  0.00000000E+00
  0.00000000E+00  0.00000000E+00  0.00000000E+00
  0.00000000E+00  0.00000000E+00  0.00000000E+00
  0.00000000E+00  0.00000000E+00  0.00000000E+00
  0.00000000E+00  0.00000000E+00  0.00000000E+00
  0.00000000E+00  0.00000000E+00  0.00000000E+00
  0.00000000E+00  0.00000000E+00  0.00000000E+00
  0.00000000E+00  0.00000000E+00  0.00000000E+00
  0.00000000E+00  0.00000000E+00  0.00000000E+00
  0.00000000E+00  0.00000000E+00  0.00000000E+00
  0.00000000E+00  0.00000000E+00  0.00000000E+00
  0.00000000E+00  0.00000000E+00  0.00000000E+00
  0.00000000E+00  0.00000000E+00  0.00000000E+00
  0.00000000E+00  0.00000000E+00  0.00000000E+00
  0.00000000E+00  0.00000000E+00  0.00000000E+00
  0.00000000E+00  0.00000000E+00  0.00000000E+00
  0.00000000E+00  0.00000000E+00  0.00000000E+00
  0.00000000E+00  0.00000000E+00  0.00000000E+00
  0.00000000E+00  0.00000000E+00  0.00000000E+00
  0.00000000E+00  0.00000000E+00  0.00000000E+00
  0.00000000E+00  0.00000000E+00  0.00000000E+00
  0.00000000E+00  0.00000000E+00  0.00000000E+00
  0.00000000E+00  0.00000000E+00  0.00000000E+00
  0.00000000E+00  0.00000000E+00  0.00000000E+00
  0.00000000E+00  0.00000000E+00  0.00000000E+00
  0.00000000E+00  0.00000000E+00  0.00000000E+00
  0.00000000E+00  0.00000000E+00  0.00000000E+00
  0.00000000E+00  0.00000000E+00  0.00000000E+00
  0.00000000E+00  0.00000000E+00  0.00000000E+00
  0.00000000E+00  0.00000000E+00  0.00000000E+00
  0.00000000E+00  0.00000000E+00  0.00000000E+00
  0.00000000E+00  0.00000000E+00  0.00000000E+00
  0.00000000E+00  0.00000000E+00  0.00000000E+00
  0.00000000E+00  0.00000000E+00  0.00000000E+00
  0.00000000E+00  0.00000000E+00  0.00000000E+00
  0.00000000E+00  0.00000000E+00  0.00000000E+00
  0.00000000E+00  0.00000000E+00  0.00000000E+00
  0.00000000E+00  0.00000000E+00  0.00000000E+00
  0.00000000E+00  0.00000000E+00  0.00000000E+00
  0.00000000E+00  0.00000000E+00  0.00000000E+00
  0.00000000E+00  0.00000000E+00  0.00000000E+00
  0.00000000E+00  0.00000000E+00  0.00000000E+00
  0.00000000E+00  0.00000000E+00  0.00000000E+00
  0.00000000E+00  0.00000000E+00  0.00000000E+00
  0.00000000E+00  0.00000000E+00  0.00000000E+00
  0.00000000E+00  0.00000000E+00  0.00000000E+00
  0.00000000E+00  0.00000000E+00  0.00000000E+00
  0.00000000E+00  0.00000000E+00  0.00000000E+00
  0.00000000E+00  0.00000000E+00  0.00000000E+00
  0.00000000E+00  0.00000000E+00  0.00000000E+00
  0.00000000E+00  0.00000000E+00  0.00000000E+00
  0.00000000E+00  0.00000000E+00  0.00000000E+00
  0.00000000E+00  0.00000000E+00  0.00000000E+00
  0.00000000E+00  0.00000000E+00  0.00000000E+00
  0.00000000E+00  0.00000000E+00  0.00000000E+00
  0.00000000E+00  0.00000000E+00  0.00000000E+00
  0.00000000E+00  0.00000000E+00  0.00000000E+00
  0.00000000E+00  0.00000000E+00  0.00000000E+00
  0.00000000E+00  0.00000000E+00  0.00000000E+00
  0.00000000E+00  0.00000000E+00  0.00000000E+00
  0.00000000E+00  0.00000000E+00  0.00000000E+00
  0.00000000E+00  0.00000000E+00  0.00000000E+00
  0.00000000E+00  0.00000000E+00  0.00000000E+00
  0.00000000E+00  0.00000000E+00  0.00000000E+00
  0.00000000E+00  0.00000000E+00  0.00000000E+00
  0.00000000E+00  0.00000000E+00  0.00000000E+00
