Pd   Cu   C    O    H 
   1.00000000000000     
  10.5475997924999998   0.0000000000000000   0.0000000000000000
  -5.2737998961999999   9.1344893692000007   0.0000000000000000
   0.0000000000000000   0.0000000000000000  18.4589996338000013
Pd   Cu   C    O    H 
16  48  1  2  1  
Selective dynamics
Direct
  0.3332809424891110  0.1666210380442190  0.0002587447096118 F F F
  0.1668109105724940  0.3331101249797040  0.1156495363969230 F F F
  0.0010037392258013  0.0002572519777857  0.2286542200015380 T T T
  0.3353903182004960  0.1670213411755550  0.3451063201295450 T T T
  0.8334264963584840  0.1665564738221620  0.9992826457303891 F F F
  0.6669276627625250  0.3331130736174330  0.1163167788718340 F F F
  0.5013602093185699  0.0002063465729947  0.2291564888422430 T T T
  0.8354335714812960  0.1677067286229670  0.3443989554885650 T T T
  0.3334517728461180  0.6667068380455490  0.9998766049003081 F F F
  0.1666735352737310  0.8335447851056870  0.1170193255459400 F F F
  0.0009786362359847  0.5002391669572790  0.2287163376809080 T T T
  0.3354422213776970  0.6678619167981170  0.3467006012121200 T T T
  0.8333785657720230  0.6667486459326210  0.0002710124708400 F F F
  0.6670099667208260  0.8332903171101550  0.1157177236240230 F F F
  0.5011930200280690  0.5004172746057880  0.2290619667901980 T T T
  0.8350191906416460  0.6665155996410590  0.3445899012202100 T T T
  0.3379921667939880  0.4193498814083650  0.0029704307919047 F F F
  0.1683259384188180  0.0840562889688101  0.1161420971250490 F F F
  0.9999426660145400  0.2493994554878970  0.2286692238834580 T T T
  0.3307911603895450  0.4143079505757610  0.3420861311505020 T T T
  0.0814582866214337  0.4189842201365650  0.0029390379043406 F F F
  0.4159795693916240  0.0839091019016749  0.1162281614097580 F F F
  0.2522138056368490  0.2502505351306470  0.2291450678162760 T T T
  0.0868420592862336  0.4157601050767210  0.3411001992966190 T T T
  0.0811423466896173  0.1620059338280910  0.0029354514586330 F F F
  0.4161955538975160  0.3318633759672880  0.1159313210441580 F F F
  0.2519427285559670  0.0019514976691184  0.2294557880845860 T T T
  0.0869241137851020  0.1711507951274240  0.3415627348626340 T T T
  0.8383765207754760  0.4191436946557300  0.0035788085438284 F F F
  0.6685238548819330  0.0838567485756556  0.1159341348423550 F F F
  0.4995238837245850  0.2493787353922980  0.2292071048130850 T T T
  0.8303829489726480  0.4146142461135870  0.3420269548741500 T T T
  0.5814416853325920  0.4186500362017400  0.0032773581667556 F F F
  0.9161993504713950  0.0838453423004069  0.1156845278272770 F F F
  0.7518535458866400  0.2492169272968280  0.2290671873731110 T T T
  0.5874259952961151  0.4149362618919310  0.3416558303615030 T T T
  0.5808854271553300  0.1616505786167790  0.0035717676909925 F F F
  0.9162323767505000  0.3314954431727770  0.1158455519217010 F F F
  0.7510146906130470  0.0004725459973187  0.2291849935154530 T T T
  0.5871568443966740  0.1711673383935090  0.3418987430682420 T T T
  0.3373574145638830  0.9184187374159410  0.0034902385436979 F F F
  0.1678551955437730  0.5835456682201891  0.1159965371297460 F F F
  0.9994766443704890  0.7497614058949300  0.2293416452009540 T T T
  0.3299751307371110  0.9154847568127240  0.3417940901538330 T T T
  0.0814164707704705  0.9186592089312310  0.0037798651760212 F F F
  0.4160878350328550  0.5840819985175900  0.1157031500119460 F F F
  0.2517217930109230  0.7492784598600440  0.2294413431543130 T T T
  0.0868023651869976  0.9150802699967850  0.3420021710954660 T T T
  0.0816654966580259  0.6627387292838020  0.0035816809367546 F F F
  0.4165051432441520  0.8322212923398240  0.1160020848301640 F F F
  0.2518051768056540  0.5017801839974469  0.2291091227743180 T T T
  0.0869043534573279  0.6704986078340200  0.3415544962647910 T T T
  0.8380256923730370  0.9188587269257620  0.0029373722344488 F F F
  0.6682870195304100  0.5839666927727980  0.1159563108761720 F F F
  0.4983407946543680  0.7488546013850550  0.2283546711404160 T T T
  0.8340302368470490  0.9165736292350321  0.3417673769731810 T T T
  0.5810590346959690  0.9186016307482840  0.0029794082989909 F F F
  0.9161203885681030  0.5842182496696470  0.1161604812253070 F F F
  0.7509835317529790  0.7495328145686950  0.2292150975865040 T T T
  0.5882804081679540  0.9158882334279920  0.3433389564277080 T T T
  0.5807686665611980  0.6620762547375630  0.0030003632752980 F F F
  0.9160360304425690  0.8317241682186560  0.1161427626974070 F F F
  0.7516719405844730  0.5015057407500830  0.2291439703666850 T T T
  0.5883815181472510  0.6721831304215300  0.3429591577890820 T T T
  0.3304584999542190  0.5339139940224770  0.5201568738271620 T T T
  0.3270027348842600  0.6421724754049690  0.5263117016881790 T T T
  0.3334230834428030  0.4262369318932570  0.5059425976260740 T T T
  0.4842434762557060  0.7206572321023760  0.4164362637907080 T T T
